/* Objective function */
max: +1.696 C1 +1.498 C2 +0.207 C3 +1.605 C4 +2.138 C5 +2.002 C6 +2.281 C7 -0.015 C8 +1.955 C9 +1.633 C10
 +2.079 C11 +2.15 C12 -0.348 C13 +1.928 C14 +1.766 C15 +0.164 C16 +0.585 C17 -0.903 C18 +0.528 C19 +0.774 C20
 +1.083 C21 +1.237 C22 +1.094 C23 +1.282 C24 +1.108 C25 +1.696 C26 +0.063 C27 +2.537 C28 +1.255 C29 +1.47 C30
 +1.466 C31 +2.216 C32 -0.792 C33 +1.578 C34 +0.644 C35 +0.624 C36 -1.371 C37 +4.424 C38 +0.017 C39 +0.994 C40
 +0.7 C41 +1.172 C42 -0.459 C43 +1.12 C44 +1.374 C45 -0.066 C46 +0.846 C47 -1.014 C48 +0.447 C49 -0.834 C50
 +0.853 C51 +1.107 C52 -0.681 C53 +1.174 C54 +1.404 C55 +1.466 C56 +0.585 C57 -0.348 C58 +0.636 C59 +1.703 C60
 +1.466 C61 +2.281 C62 -1.014 C63 +2.197 C64 +1.435 C65 +2.002 C66 -0.002 C67 +2.981 C68 +1.524 C69 +2.191 C70
 +2.232 C71 +1.89 C72 -0.681 C73 +1.901 C74 +1.511 C75 +1.543 C76 +1.759 C77 +0.318 C78 +1.524 C79 +1.201 C80
 +1.619 C81 +2.085 C82 +0.096 C83 +1.713 C84 +1.274 C85 +0.317 C86 +0.65 C87 -0.57 C88 +0.178 C89 -0.257 C90
 +0.317 C91 +0.65 C92 -0.57 C93 +0.178 C94 -0.257 C95 +1.925 C96 +1.433 C97 +0.429 C98 +2.009 C99 +1.557 C100
 +2.844 C101 +2.607 C102 +0.54 C103 +2.735 C104 +2.259 C105 +2.385 C106 +0.65 C107 +1.649 C108 +1.739 C109
 +1.9 C110 +1.313 C111 +2.15 C112 -0.681 C113 +2.278 C114 +1.131 C115 +2.002 C116 +1.824 C117 +0.429 C118
 +1.928 C119 +2.012 C120 +1.236 C121 +1.629 C122 -1.014 C123 +1.309 C124 +1.611 C125 +0.93 C126 +0.911 C127
 -0.348 C128 +1.174 C129 +1.397 C130;

/* Constraints */
+C1 +C2 +C3 +C4 +C5 -C131 = 0;
+C6 +C7 +C8 +C9 +C10 -C132 = 0;
+C11 +C12 +C13 +C14 +C15 -C133 = 0;
+C16 +C17 +C18 +C19 +C20 -C134 = 0;
+C21 +C22 +C23 +C24 +C25 -C135 = 0;
+C26 +C27 +C28 +C29 +C30 -C136 = 0;
+C31 +C32 +C33 +C34 +C35 -C137 = 0;
+C36 +C37 +C38 +C39 +C40 -C138 = 0;
+C41 +C42 +C43 +C44 +C45 -C139 = 0;
+C46 +C47 +C48 +C49 +C50 -C140 = 0;
+C51 +C52 +C53 +C54 +C55 -C141 = 0;
+C56 +C57 +C58 +C59 +C60 -C142 = 0;
+C61 +C62 +C63 +C64 +C65 -C143 = 0;
+C66 +C67 +C68 +C69 +C70 -C144 = 0;
+C71 +C72 +C73 +C74 +C75 -C145 = 0;
+C76 +C77 +C78 +C79 +C80 -C146 = 0;
+C81 +C82 +C83 +C84 +C85 -C147 = 0;
+C86 +C87 +C88 +C89 +C90 -C148 = 0;
+C91 +C92 +C93 +C94 +C95 -C149 = 0;
+C96 +C97 +C98 +C99 +C100 -C150 = 0;
+C101 +C102 +C103 +C104 +C105 -C151 = 0;
+C106 +C107 +C108 +C109 +C110 -C152 = 0;
+C111 +C112 +C113 +C114 +C115 -C153 = 0;
+C116 +C117 +C118 +C119 +C120 -C154 = 0;
+C121 +C122 +C123 +C124 +C125 -C155 = 0;
+C126 +C127 +C128 +C129 +C130 -C156 = 0;
+C86 +C87 +C88 +C89 +C90 +C91 +C92 +C93 +C94 +C95 -C157 = 0;
+C16 +C17 +C18 +C19 +C20 +C46 +C47 +C48 +C49 +C50 +C86 +C87 +C88 +C89 +C90 = 5;
+C6 +C7 +C8 +C9 +C10 +C31 +C32 +C33 +C34 +C35 +C41 +C42 +C43 +C44 +C45 +C51 +C52 +C53 +C54 +C55 +C56
 +C57 +C58 +C59 +C60 +C61 +C62 +C63 +C64 +C65 +C116 +C117 +C118 +C119 +C120 +C121 +C122 +C123 +C124 +C125 = 5;
+C36 +C37 +C38 +C39 +C40 +C66 +C67 +C68 +C69 +C70 = 5;
+C21 +C22 +C23 +C24 +C25 +C126 +C127 +C128 +C129 +C130 = 5;
+C71 +C72 +C73 +C74 +C75 +C81 +C82 +C83 +C84 +C85 +C96 +C97 +C98 +C99 +C100 +C111 +C112 +C113 +C114 +C115 = 5;
+C1 +C2 +C3 +C4 +C5 +C11 +C12 +C13 +C14 +C15 +C26 +C27 +C28 +C29 +C30 +C76 +C77 +C78 +C79 +C80 +C91 +C92
 +C93 +C94 +C95 +C101 +C102 +C103 +C104 +C105 +C106 +C107 +C108 +C109 +C110 = 5;
+C233 +C234 +C235 +C236 +C237 +C238 +C239 +C240 +C241 +C242 +C243 +C244 +C245 +C246 +C247 +C248 +C249
 +C250 +C251 +C252 +C253 +C254 +C255 +C256 +C257 <= 270;
-0.2 C131 +C158 = 0;
-0.2 C132 +C159 = 0;
-0.2 C133 +C160 = 0;
-0.2 C134 +C161 = 0;
-0.2 C135 +C162 = 0;
-0.2 C136 +C163 = 0;
-0.2 C137 +C164 = 0;
-0.2 C138 +C165 = 0;
-0.2 C139 +C166 = 0;
-0.2 C140 +C167 = 0;
-0.2 C141 +C168 = 0;
-0.2 C142 +C169 = 0;
-0.2 C143 +C170 = 0;
-0.2 C144 +C171 = 0;
-0.2 C145 +C172 = 0;
-0.2 C146 +C173 = 0;
-0.2 C147 +C174 = 0;
-0.2 C148 -0.2 C149 +C175 = 0;
-0.2 C150 +C176 = 0;
-0.2 C151 +C177 = 0;
-0.2 C152 +C178 = 0;
-0.2 C153 +C179 = 0;
-0.2 C154 +C180 = 0;
-0.2 C155 +C181 = 0;
-0.2 C156 +C182 = 0;
+C158 +C183 = 1;
+C159 +C184 = 1;
+C160 +C185 = 1;
+C161 +C186 = 1;
+C162 +C187 = 1;
+C163 +C188 = 1;
+C164 +C189 = 1;
+C165 +C190 = 1;
+C166 +C191 = 1;
+C167 +C192 = 1;
+C168 +C193 = 1;
+C169 +C194 = 1;
+C170 +C195 = 1;
+C171 +C196 = 1;
+C172 +C197 = 1;
+C173 +C198 = 1;
+C174 +C199 = 1;
+C175 +C200 = 1;
+C176 +C201 = 1;
+C177 +C202 = 1;
+C178 +C203 = 1;
+C179 +C204 = 1;
+C180 +C205 = 1;
+C181 +C206 = 1;
+C182 +C207 = 1;
-0.2 C131 -C233 +C258 = 0;
-0.2 C132 -C234 +C259 = 0;
-0.2 C133 -C235 +C260 = 0;
-0.2 C134 -C236 +C261 = 0;
-0.2 C135 -C237 +C262 = 0;
-0.2 C136 -C238 +C263 = 0;
-0.2 C137 -C239 +C264 = 0;
-0.2 C138 -C240 +C265 = 0;
-0.2 C139 -C241 +C266 = 0;
-0.2 C140 -C242 +C267 = 0;
-0.2 C141 -C243 +C268 = 0;
-0.2 C142 -C244 +C269 = 0;
-0.2 C143 -C245 +C270 = 0;
-0.2 C144 -C246 +C271 = 0;
-0.2 C145 -C247 +C272 = 0;
-0.2 C146 -C248 +C273 = 0;
-0.2 C147 -C249 +C274 = 0;
-0.2 C148 -0.2 C149 -C250 +C275 = 0;
-0.2 C150 -C251 +C276 = 0;
-0.2 C151 -C252 +C277 = 0;
-0.2 C152 -C253 +C278 = 0;
-0.2 C153 -C254 +C279 = 0;
-0.2 C154 -C255 +C280 = 0;
-0.2 C155 -C256 +C281 = 0;
-0.2 C156 -C257 +C282 = 0;
+C158 -C258 = 0;
+C159 -C259 = 0;
+C160 -C260 = 0;
+C161 -C261 = 0;
+C162 -C262 = 0;
+C163 -C263 = 0;
+C164 -C264 = 0;
+C165 -C265 = 0;
+C166 -C266 = 0;
+C167 -C267 = 0;
+C168 -C268 = 0;
+C169 -C269 = 0;
+C170 -C270 = 0;
+C171 -C271 = 0;
+C172 -C272 = 0;
+C173 -C273 = 0;
+C174 -C274 = 0;
+C175 -C275 = 0;
+C176 -C276 = 0;
+C177 -C277 = 0;
+C178 -C278 = 0;
+C179 -C279 = 0;
+C180 -C280 = 0;
+C181 -C281 = 0;
+C182 -C282 = 0;
R135: +C208 = 37;
R136: +C209 = 54;
R137: +C210 = 39;
R138: +C211 = 49;
R139: +C212 = 48;
R140: +C213 = 36;
R141: +C214 = 38;
R142: +C215 = 36;
R143: +C216 = 31;
R144: +C217 = 39;
R145: +C218 = 31;
R146: +C219 = 32;
R147: +C220 = 46;
R148: +C221 = 59;
R149: +C222 = 38;
R150: +C223 = 32;
R151: +C224 = 38;
R152: +C225 = 44;
R153: +C226 = 41;
R154: +C227 = 59;
R155: +C228 = 44;
R156: +C229 = 34;
R157: +C230 = 56;
R158: +C231 = 36;
R159: +C232 = 38;
-270 C183 +C208 -C233 <= 50;
-270 C184 +C209 -C234 <= 50;
-270 C185 +C210 -C235 <= 50;
-270 C186 +C211 -C236 <= 50;
-270 C187 +C212 -C237 <= 50;
-270 C188 +C213 -C238 <= 50;
-270 C189 +C214 -C239 <= 50;
-270 C190 +C215 -C240 <= 50;
-270 C191 +C216 -C241 <= 50;
-270 C192 +C217 -C242 <= 50;
-270 C193 +C218 -C243 <= 50;
-270 C194 +C219 -C244 <= 50;
-270 C195 +C220 -C245 <= 50;
-270 C196 +C221 -C246 <= 50;
-270 C197 +C222 -C247 <= 50;
-270 C198 +C223 -C248 <= 50;
-270 C199 +C224 -C249 <= 50;
-270 C200 +C225 -C250 <= 50;
-270 C201 +C226 -C251 <= 50;
-270 C202 +C227 -C252 <= 50;
-270 C203 +C228 -C253 <= 50;
-270 C204 +C229 -C254 <= 50;
-270 C205 +C230 -C255 <= 50;
-270 C206 +C231 -C256 <= 50;
-270 C207 +C232 -C257 <= 50;

/* Variable bounds */
C1 <= 1;
C2 <= 1;
C3 <= 1;
C4 <= 1;
C5 <= 1;
C6 <= 1;
C7 <= 1;
C8 <= 1;
C9 <= 1;
C10 <= 1;
C11 <= 1;
C12 <= 1;
C13 <= 1;
C14 <= 1;
C15 <= 1;
C16 <= 1;
C17 <= 1;
C18 <= 1;
C19 <= 1;
C20 <= 1;
C21 <= 1;
C22 <= 1;
C23 <= 1;
C24 <= 1;
C25 <= 1;
C26 <= 1;
C27 <= 1;
C28 <= 1;
C29 <= 1;
C30 <= 1;
C31 <= 1;
C32 <= 1;
C33 <= 1;
C34 <= 1;
C35 <= 1;
C36 <= 1;
C37 <= 1;
C38 <= 1;
C39 <= 1;
C40 <= 1;
C41 <= 1;
C42 <= 1;
C43 <= 1;
C44 <= 1;
C45 <= 1;
C46 <= 1;
C47 <= 1;
C48 <= 1;
C49 <= 1;
C50 <= 1;
C51 <= 1;
C52 <= 1;
C53 <= 1;
C54 <= 1;
C55 <= 1;
C56 <= 1;
C57 <= 1;
C58 <= 1;
C59 <= 1;
C60 <= 1;
C61 <= 1;
C62 <= 1;
C63 <= 1;
C64 <= 1;
C65 <= 1;
C66 <= 1;
C67 <= 1;
C68 <= 1;
C69 <= 1;
C70 <= 1;
C71 <= 1;
C72 <= 1;
C73 <= 1;
C74 <= 1;
C75 <= 1;
C76 <= 1;
C77 <= 1;
C78 <= 1;
C79 <= 1;
C80 <= 1;
C81 <= 1;
C82 <= 1;
C83 <= 1;
C84 <= 1;
C85 <= 1;
C86 <= 1;
C87 <= 1;
C88 <= 1;
C89 <= 1;
C90 <= 1;
C91 <= 1;
C92 <= 1;
C93 <= 1;
C94 <= 1;
C95 <= 1;
C96 <= 1;
C97 <= 1;
C98 <= 1;
C99 <= 1;
C100 <= 1;
C101 <= 1;
C102 <= 1;
C103 <= 1;
C104 <= 1;
C105 <= 1;
C106 <= 1;
C107 <= 1;
C108 <= 1;
C109 <= 1;
C110 <= 1;
C111 <= 1;
C112 <= 1;
C113 <= 1;
C114 <= 1;
C115 <= 1;
C116 <= 1;
C117 <= 1;
C118 <= 1;
C119 <= 1;
C120 <= 1;
C121 <= 1;
C122 <= 1;
C123 <= 1;
C124 <= 1;
C125 <= 1;
C126 <= 1;
C127 <= 1;
C128 <= 1;
C129 <= 1;
C130 <= 1;
C131 >= 4.9;
C132 >= 4.9;
C133 >= 4.9;
C134 >= 4.9;
C135 >= 4.9;
C136 >= 4.9;
C137 >= 4.9;
C138 >= 4.9;
C139 >= 4.9;
C140 >= 4.9;
C141 >= 4.9;
C142 >= 4.9;
C143 >= 4.9;
C144 >= 4.9;
C145 >= 4.9;
C146 >= 4.9;
C147 >= 4.9;
C148 >= 4.9;
C149 >= 4.9;
C150 >= 4.9;
C151 >= 4.9;
C152 >= 4.9;
C153 >= 4.9;
C154 >= 4.9;
C155 >= 4.9;
C156 >= 4.9;
C157 >= 4.9;
C158 <= 1;
C159 <= 1;
C160 <= 1;
C161 <= 1;
C162 <= 1;
C163 <= 1;
C164 <= 1;
C165 <= 1;
C166 <= 1;
C167 <= 1;
C168 <= 1;
C169 <= 1;
C170 <= 1;
C171 <= 1;
C172 <= 1;
C173 <= 1;
C174 <= 1;
C175 <= 1;
C176 <= 1;
C177 <= 1;
C178 <= 1;
C179 <= 1;
C180 <= 1;
C181 <= 1;
C182 <= 1;
C233 >= 4.9;
C234 >= 4.9;
C235 >= 4.9;
C236 >= 4.9;
C237 >= 4.9;
C238 >= 4.9;
C239 >= 4.9;
C240 >= 4.9;
C241 >= 4.9;
C242 >= 4.9;
C243 >= 4.9;
C244 >= 4.9;
C245 >= 4.9;
C246 >= 4.9;
C247 >= 4.9;
C248 >= 4.9;
C249 >= 4.9;
C250 >= 4.9;
C251 >= 4.9;
C252 >= 4.9;
C253 >= 4.9;
C254 >= 4.9;
C255 >= 4.9;
C256 >= 4.9;
C257 >= 4.9;
C258 <= 1;
C259 <= 1;
C260 <= 1;
C261 <= 1;
C262 <= 1;
C263 <= 1;
C264 <= 1;
C265 <= 1;
C266 <= 1;
C267 <= 1;
C268 <= 1;
C269 <= 1;
C270 <= 1;
C271 <= 1;
C272 <= 1;
C273 <= 1;
C274 <= 1;
C275 <= 1;
C276 <= 1;
C277 <= 1;
C278 <= 1;
C279 <= 1;
C280 <= 1;
C281 <= 1;
C282 <= 1;

/* Integer definitions */
int C1,C2,C3,C4,C5,C6,C7,C8,C9,C10,C11,C12,C13,C14,C15,C16,C17,C18,C19,C20,C21,C22,C23,C24,C25,C26,C27,C28,C29,C30,C31,C32,C33,C34,C35,C36,C37,C38,C39,C40,C41,C42,C43,C44,C45,C46,C47,C48,C49,C50,C51,C52,C53,C54,C55,C56,C57,C58,C59,C60,C61,C62,C63,C64,C65,C66,C67,C68,C69,C70,C71,C72,C73,C74,C75,C76,C77,C78,C79,C80,C81,C82,C83,C84,C85,C86,C87,C88,C89,C90,C91,C92,C93,C94,C95,C96,C97,C98,C99,C100,C101,C102,C103,C104,C105,C106,C107,C108,C109,C110,C111,C112,C113,C114,C115,C116,C117,C118,C119,C120,C121,C122,C123,C124,C125,C126,C127,C128,C129,C130,C158,C159,C160,C161,C162,C163,C164,C165,C166,C167,C168,C169,C170,C171,C172,C173,C174,C175,C176,C177,C178,C179,C180,C181,C182,C258,C259,C260,C261,C262,C263,C264,C265,C266,C267,C268,C269,C270,C271,C272,C273,C274,C275,C276,C277,C278,C279,C280,C281,C282;

/* Semi-continuous variables */
sec C131,C132,C133,C134,C135,C136,C137,C138,C139,C140,C141,C142,C143,C144,C145,C146,C147,C148,C149,C150
,C151,C152,C153,C154,C155,C156,C157,C233,C234,C235,C236,C237,C238,C239,C240,C241,C242,C243,C244,C245,C246
,C247,C248,C249,C250,C251,C252,C253,C254,C255,C256,C257;
